ilp.txt
SUBJECT TO
d1x + 1 = d1s
d1y + 1 = d1t
d1x - d1s + 10000 d1Rd1 >= 0
d1y - d1t + 10000 d1Ld1 >= 0
d1x - d1s + 10000 d1Ud1 >= 0
d1y - d1t + 10000 d1Dd1 >= 0
d1Rd1 + d1Ld1 + d1Ud1 + d1Dd1 = 3
d1x + 1 = d1s
d1y + 1 = d1t
d1x - d2s + 10000 d1Rd2 >= 0
d1y - d2t + 10000 d1Ld2 >= 0
d2x - d1s + 10000 d1Ud2 >= 0
d2y - d1t + 10000 d1Dd2 >= 0
d1Rd2 + d1Ld2 + d1Ud2 + d1Dd2 = 3
d1x + 1 = d1s
d1y + 1 = d1t
d1x - d3s + 10000 d1Rd3 >= 0
d1y - d3t + 10000 d1Ld3 >= 0
d3x - d1s + 10000 d1Ud3 >= 0
d3y - d1t + 10000 d1Dd3 >= 0
d1Rd3 + d1Ld3 + d1Ud3 + d1Dd3 = 3
d2x + 2 = d2s
d2y + 2 = d2t
d2x - d1s + 10000 d2Rd1 >= 0
d2y - d1t + 10000 d2Ld1 >= 0
d1x - d2s + 10000 d2Ud1 >= 0
d1y - d2t + 10000 d2Dd1 >= 0
d2Rd1 + d2Ld1 + d2Ud1 + d2Dd1 = 3
d2x + 2 = d2s
d2y + 2 = d2t
d2x - d2s + 10000 d2Rd2 >= 0
d2y - d2t + 10000 d2Ld2 >= 0
d2x - d2s + 10000 d2Ud2 >= 0
d2y - d2t + 10000 d2Dd2 >= 0
d2Rd2 + d2Ld2 + d2Ud2 + d2Dd2 = 3
d2x + 2 = d2s
d2y + 2 = d2t
d2x - d3s + 10000 d2Rd3 >= 0
d2y - d3t + 10000 d2Ld3 >= 0
d3x - d2s + 10000 d2Ud3 >= 0
d3y - d2t + 10000 d2Dd3 >= 0
d2Rd3 + d2Ld3 + d2Ud3 + d2Dd3 = 3
d3x + 3 = d3s
d3y + 3 = d3t
d3x - d1s + 10000 d3Rd1 >= 0
d3y - d1t + 10000 d3Ld1 >= 0
d1x - d3s + 10000 d3Ud1 >= 0
d1y - d3t + 10000 d3Dd1 >= 0
d3Rd1 + d3Ld1 + d3Ud1 + d3Dd1 = 3
d3x + 3 = d3s
d3y + 3 = d3t
d3x - d2s + 10000 d3Rd2 >= 0
d3y - d2t + 10000 d3Ld2 >= 0
d2x - d3s + 10000 d3Ud2 >= 0
d2y - d3t + 10000 d3Dd2 >= 0
d3Rd2 + d3Ld2 + d3Ud2 + d3Dd2 = 3
d3x + 3 = d3s
d3y + 3 = d3t
d3x - d3s + 10000 d3Rd3 >= 0
d3y - d3t + 10000 d3Ld3 >= 0
d3x - d3s + 10000 d3Ud3 >= 0
d3y - d3t + 10000 d3Dd3 >= 0
d3Rd3 + d3Ld3 + d3Ud3 + d3Dd3 = 3
BINARY
d1Rd1
d1Ld1
d1Ud1
d1Dd1
d1Rd2
d1Ld2
d1Ud2
d1Dd2
d1Rd3
d1Ld3
d1Ud3
d1Dd3
d2Rd1
d2Ld1
d2Ud1
d2Dd1
d2Rd2
d2Ld2
d2Ud2
d2Dd2
d2Rd3
d2Ld3
d2Ud3
d2Dd3
d3Rd1
d3Ld1
d3Ud1
d3Dd1
d3Rd2
d3Ld2
d3Ud2
d3Dd2
d3Rd3
d3Ld3
d3Ud3
d3Dd3
INTEGER
d1x
d1y
d1s
d1t
d1x
d1y
d1s
d1t
d1x
d1y
d1s
d1t
d2x
d2y
d2s
d2t
d1x
d1y
d1s
d1t
d3x
d3y
d3s
d3t
d2x
d2y
d2s
d2t
d1x
d1y
d1s
d1t
d2x
d2y
d2s
d2t
d2x
d2y
d2s
d2t
d2x
d2y
d2s
d2t
d3x
d3y
d3s
d3t
d3x
d3y
d3s
d3t
d1x
d1y
d1s
d1t
d3x
d3y
d3s
d3t
d2x
d2y
d2s
d2t
d3x
d3y
d3s
d3t
d3x
d3y
d3s
d3t
